* #variable= 100 #constraint= 444
* Defense
+7 x16 +9 x25 +12 x47 +11 x49 -4 x51 >= 0 ;
-7 x16 -9 x25 -12 x47 -11 x49 -4 x51 +476 x51 >= -4 ;
+7 x66 +9 x75 +12 x97 +11 x99 +4 x1 -476 x1 >= -437 ;
+12 x6 +1 x9 +15 x19 +8 x37 +13 x48 -2 x52 >= 0 ;
-12 x6 -1 x9 -15 x19 -8 x37 -13 x48 -2 x52 +476 x52 >= -2 ;
+12 x56 +1 x59 +15 x69 +8 x87 +13 x98 +2 x2 -476 x2 >= -427 ;
+4 x1 +5 x4 +4 x11 +2 x18 +17 x21 +4 x34 +11 x35 -20 x53 >= 0 ;
-4 x1 -5 x4 -4 x11 -2 x18 -17 x21 -4 x34 -11 x35 -20 x53 +476 x53 >= -20 ;
+4 x51 +5 x54 +4 x61 +2 x68 +17 x71 +4 x84 +11 x85 +20 x3 -476 x3 >= -429 ;
+17 x13 +3 x15 +2 x18 +9 x25 +9 x28 +11 x49 -5 x54 >= 0 ;
-17 x13 -3 x15 -2 x18 -9 x25 -9 x28 -11 x49 -5 x54 +476 x54 >= -5 ;
+17 x63 +3 x65 +2 x68 +9 x75 +9 x78 +11 x99 +5 x4 -476 x4 >= -425 ;
+4 x11 +9 x14 +11 x24 +20 x42 +10 x45 +13 x48 -9 x55 >= 0 ;
-4 x11 -9 x14 -11 x24 -20 x42 -10 x45 -13 x48 -9 x55 +476 x55 >= -9 ;
+4 x61 +9 x64 +11 x74 +20 x92 +10 x95 +13 x98 +9 x5 -476 x5 >= -409 ;
+7 x16 +2 x18 +2 x26 +11 x35 +2 x36 -12 x56 >= 0 ;
-7 x16 -2 x18 -2 x26 -11 x35 -2 x36 -12 x56 +476 x56 >= -12 ;
+7 x66 +2 x68 +2 x76 +11 x85 +2 x86 +12 x6 -476 x6 >= -452 ;
+4 x1 +1 x10 +3 x15 +11 x24 +7 x46 -9 x57 >= 0 ;
-4 x1 -1 x10 -3 x15 -11 x24 -7 x46 -9 x57 +476 x57 >= -9 ;
+4 x51 +1 x60 +3 x65 +11 x74 +7 x96 +9 x7 -476 x7 >= -450 ;
+4 x1 +9 x5 +8 x37 +10 x39 +8 x43 -8 x58 >= 0 ;
-4 x1 -9 x5 -8 x37 -10 x39 -8 x43 -8 x58 +476 x58 >= -8 ;
+4 x51 +9 x55 +8 x87 +10 x89 +8 x93 +8 x8 -476 x8 >= -437 ;
+9 x25 +11 x49 -1 x59 >= 0 ;
-9 x25 -11 x49 -1 x59 +476 x59 >= -1 ;
+9 x75 +11 x99 +1 x9 -476 x9 >= -456 ;
+2 x2 +1 x9 +7 x16 +18 x17 +11 x35 +12 x47 -1 x60 >= 0 ;
-2 x2 -1 x9 -7 x16 -18 x17 -11 x35 -12 x47 -1 x60 +476 x60 >= -1 ;
+2 x52 +1 x59 +7 x66 +18 x67 +11 x85 +12 x97 +1 x10 -476 x10 >= -425 ;
+18 x17 +4 x34 +11 x35 -4 x61 >= 0 ;
-18 x17 -4 x34 -11 x35 -4 x61 +476 x61 >= -4 ;
+18 x67 +4 x84 +11 x85 +4 x11 -476 x11 >= -443 ;
+12 x27 +2 x36 +12 x44 -11 x62 >= 0 ;
-12 x27 -2 x36 -12 x44 -11 x62 +476 x62 >= -11 ;
+12 x77 +2 x86 +12 x94 +11 x12 -476 x12 >= -450 ;
+12 x6 +9 x28 +2 x36 +10 x45 +12 x47 +13 x48 -17 x63 >= 0 ;
-12 x6 -9 x28 -2 x36 -10 x45 -12 x47 -13 x48 -17 x63 +476 x63 >= -17 ;
+12 x56 +9 x78 +2 x86 +10 x95 +12 x97 +13 x98 +17 x13 -476 x13 >= -418 ;
+5 x4 +4 x11 +17 x13 +10 x22 +7 x46 -9 x64 >= 0 ;
-5 x4 -4 x11 -17 x13 -10 x22 -7 x46 -9 x64 +476 x64 >= -9 ;
+5 x54 +4 x61 +17 x63 +10 x72 +7 x96 +9 x14 -476 x14 >= -433 ;
+20 x3 +1 x10 +2 x18 +17 x21 +12 x27 +14 x29 +11 x35 +8 x37 +10 x45 -3 x65 >= 0 ;
-20 x3 -1 x10 -2 x18 -17 x21 -12 x27 -14 x29 -11 x35 -8 x37 -10 x45 -3 x65 +476 x65 >= -3 ;
+20 x53 +1 x60 +2 x68 +17 x71 +12 x77 +14 x79 +11 x85 +8 x87 +10 x95 +3 x15 -476 x15 >= -381 ;
+9 x7 +8 x8 +2 x18 +17 x21 +1 x33 -7 x66 >= 0 ;
-9 x7 -8 x8 -2 x18 -17 x21 -1 x33 -7 x66 +476 x66 >= -7 ;
+9 x57 +8 x58 +2 x68 +17 x71 +1 x83 +7 x16 -476 x16 >= -439 ;
+9 x5 +8 x8 +10 x20 +9 x25 +4 x41 +20 x42 -18 x67 >= 0 ;
-9 x5 -8 x8 -10 x20 -9 x25 -4 x41 -20 x42 -18 x67 +476 x67 >= -18 ;
+9 x55 +8 x58 +10 x70 +9 x75 +4 x91 +20 x92 +18 x17 -476 x17 >= -416 ;
+1 x10 +10 x20 +9 x28 +10 x39 -2 x68 >= 0 ;
-1 x10 -10 x20 -9 x28 -10 x39 -2 x68 +476 x68 >= -2 ;
+1 x60 +10 x70 +9 x78 +10 x89 +2 x18 -476 x18 >= -446 ;
+2 x2 +10 x20 +17 x21 +2 x36 +10 x45 +9 x50 -15 x69 >= 0 ;
-2 x2 -10 x20 -17 x21 -2 x36 -10 x45 -9 x50 -15 x69 +476 x69 >= -15 ;
+2 x52 +10 x70 +17 x71 +2 x86 +10 x95 +9 x100 +15 x19 -476 x19 >= -426 ;
+9 x14 +17 x21 +12 x27 +9 x28 -10 x70 >= 0 ;
-9 x14 -17 x21 -12 x27 -9 x28 -10 x70 +476 x70 >= -10 ;
+9 x64 +17 x71 +12 x77 +9 x78 +10 x20 -476 x20 >= -429 ;
+5 x4 +14 x29 +10 x39 +7 x46 -17 x71 >= 0 ;
-5 x4 -14 x29 -10 x39 -7 x46 -17 x71 +476 x71 >= -17 ;
+5 x54 +14 x79 +10 x89 +7 x96 +17 x21 -476 x21 >= -440 ;
+2 x18 +11 x38 +7 x46 -10 x72 >= 0 ;
-2 x18 -11 x38 -7 x46 -10 x72 +476 x72 >= -10 ;
+2 x68 +11 x88 +7 x96 +10 x22 -476 x22 >= -456 ;
+4 x1 +12 x6 +1 x10 +2 x26 +9 x28 +17 x30 +4 x34 -20 x73 >= 0 ;
-4 x1 -12 x6 -1 x10 -2 x26 -9 x28 -17 x30 -4 x34 -20 x73 +476 x73 >= -20 ;
+4 x51 +12 x56 +1 x60 +2 x76 +9 x78 +17 x80 +4 x84 +20 x23 -476 x23 >= -427 ;
+20 x3 +9 x28 +9 x50 -11 x74 >= 0 ;
-20 x3 -9 x28 -9 x50 -11 x74 +476 x74 >= -11 ;
+20 x53 +9 x78 +9 x100 +11 x24 -476 x24 >= -438 ;
+3 x15 +17 x21 +11 x24 +4 x40 +13 x48 -9 x75 >= 0 ;
-3 x15 -17 x21 -11 x24 -4 x40 -13 x48 -9 x75 +476 x75 >= -9 ;
+3 x65 +17 x71 +11 x74 +4 x90 +13 x98 +9 x25 -476 x25 >= -428 ;
+4 x1 +2 x2 +20 x3 +9 x14 +2 x36 +7 x46 +11 x49 -2 x76 >= 0 ;
-4 x1 -2 x2 -20 x3 -9 x14 -2 x36 -7 x46 -11 x49 -2 x76 +476 x76 >= -2 ;
+4 x51 +2 x52 +20 x53 +9 x64 +2 x86 +7 x96 +11 x99 +2 x26 -476 x26 >= -421 ;
+20 x3 +9 x14 +7 x16 +15 x19 +19 x32 +2 x36 +13 x48 -12 x77 >= 0 ;
-20 x3 -9 x14 -7 x16 -15 x19 -19 x32 -2 x36 -13 x48 -12 x77 +476 x77 >= -12 ;
+20 x53 +9 x64 +7 x66 +15 x69 +19 x82 +2 x86 +13 x98 +12 x27 -476 x27 >= -391 ;
+1 x10 +10 x22 +14 x29 +9 x50 -9 x78 >= 0 ;
-1 x10 -10 x22 -14 x29 -9 x50 -9 x78 +476 x78 >= -9 ;
+1 x60 +10 x72 +14 x79 +9 x100 +9 x28 -476 x28 >= -442 ;
+12 x6 +8 x8 +2 x36 +8 x37 -14 x79 >= 0 ;
-12 x6 -8 x8 -2 x36 -8 x37 -14 x79 +476 x79 >= -14 ;
+12 x56 +8 x58 +2 x86 +8 x87 +14 x29 -476 x29 >= -446 ;
+5 x4 +8 x43 -17 x80 >= 0 ;
-5 x4 -8 x43 -17 x80 +476 x80 >= -17 ;
+5 x54 +8 x93 +17 x30 -476 x30 >= -463 ;
+5 x4 +9 x5 +3 x15 +1 x33 +4 x34 +11 x49 -11 x81 >= 0 ;
-5 x4 -9 x5 -3 x15 -1 x33 -4 x34 -11 x49 -11 x81 +476 x81 >= -11 ;
+5 x54 +9 x55 +3 x65 +1 x83 +4 x84 +11 x99 +11 x31 -476 x31 >= -443 ;
+20 x3 +11 x12 +11 x24 +9 x28 +20 x42 -19 x82 >= 0 ;
-20 x3 -11 x12 -11 x24 -9 x28 -20 x42 -19 x82 +476 x82 >= -19 ;
+20 x53 +11 x62 +11 x74 +9 x78 +20 x92 +19 x32 -476 x32 >= -405 ;
+2 x2 +17 x13 +9 x14 +15 x19 +10 x22 +11 x24 +12 x44 -1 x83 >= 0 ;
-2 x2 -17 x13 -9 x14 -15 x19 -10 x22 -11 x24 -12 x44 -1 x83 +476 x83 >= -1 ;
+2 x52 +17 x63 +9 x64 +15 x69 +10 x72 +11 x74 +12 x94 +1 x33 -476 x33 >= -400 ;
+2 x2 +9 x28 +20 x42 +9 x50 -4 x84 >= 0 ;
-2 x2 -9 x28 -20 x42 -9 x50 -4 x84 +476 x84 >= -4 ;
+2 x52 +9 x78 +20 x92 +9 x100 +4 x34 -476 x34 >= -436 ;
+12 x6 +11 x12 +10 x22 +9 x28 +8 x37 -11 x85 >= 0 ;
-12 x6 -11 x12 -10 x22 -9 x28 -8 x37 -11 x85 +476 x85 >= -11 ;
+12 x56 +11 x62 +10 x72 +9 x78 +8 x87 +11 x35 -476 x35 >= -426 ;
+11 x24 +17 x30 +8 x43 +12 x44 +9 x50 -2 x86 >= 0 ;
-11 x24 -17 x30 -8 x43 -12 x44 -9 x50 -2 x86 +476 x86 >= -2 ;
+11 x74 +17 x80 +8 x93 +12 x94 +9 x100 +2 x36 -476 x36 >= -419 ;
+18 x17 +10 x22 -8 x87 >= 0 ;
-18 x17 -10 x22 -8 x87 +476 x87 >= -8 ;
+18 x67 +10 x72 +8 x37 -476 x37 >= -448 ;
+9 x14 -11 x88 >= 0 ;
-9 x14 -11 x88 +476 x88 >= -11 ;
+9 x64 +11 x38 -476 x38 >= -467 ;
+17 x13 +10 x20 +9 x50 -10 x89 >= 0 ;
-17 x13 -10 x20 -9 x50 -10 x89 +476 x89 >= -10 ;
+17 x63 +10 x70 +9 x100 +10 x39 -476 x39 >= -440 ;
+1 x10 +7 x16 +10 x20 +11 x24 +12 x27 +13 x48 -4 x90 >= 0 ;
-1 x10 -7 x16 -10 x20 -11 x24 -12 x27 -13 x48 -4 x90 +476 x90 >= -4 ;
+1 x60 +7 x66 +10 x70 +11 x74 +12 x77 +13 x98 +4 x40 -476 x40 >= -422 ;
+9 x14 +10 x20 -4 x91 >= 0 ;
-9 x14 -10 x20 -4 x91 +476 x91 >= -4 ;
+9 x64 +10 x70 +4 x41 -476 x41 >= -457 ;
+5 x4 +1 x9 +17 x13 +17 x30 +19 x32 +4 x34 +12 x47 -20 x92 >= 0 ;
-5 x4 -1 x9 -17 x13 -17 x30 -19 x32 -4 x34 -12 x47 -20 x92 +476 x92 >= -20 ;
+5 x54 +1 x59 +17 x63 +17 x80 +19 x82 +4 x84 +12 x97 +20 x42 -476 x42 >= -401 ;
+15 x19 +20 x42 +10 x45 -8 x93 >= 0 ;
-15 x19 -20 x42 -10 x45 -8 x93 +476 x93 >= -8 ;
+15 x69 +20 x92 +10 x95 +8 x43 -476 x43 >= -431 ;
+5 x4 +18 x17 +10 x22 +1 x33 +4 x40 +8 x43 -12 x94 >= 0 ;
-5 x4 -18 x17 -10 x22 -1 x33 -4 x40 -8 x43 -12 x94 +476 x94 >= -12 ;
+5 x54 +18 x67 +10 x72 +1 x83 +4 x90 +8 x93 +12 x44 -476 x44 >= -430 ;
+9 x5 +12 x6 +1 x9 +2 x26 +20 x42 -10 x95 >= 0 ;
-9 x5 -12 x6 -1 x9 -2 x26 -20 x42 -10 x95 +476 x95 >= -10 ;
+9 x55 +12 x56 +1 x59 +2 x76 +20 x92 +10 x45 -476 x45 >= -432 ;
+4 x1 +20 x3 +12 x6 +11 x12 +9 x25 +2 x26 +20 x42 -7 x96 >= 0 ;
-4 x1 -20 x3 -12 x6 -11 x12 -9 x25 -2 x26 -20 x42 -7 x96 +476 x96 >= -7 ;
+4 x51 +20 x53 +12 x56 +11 x62 +9 x75 +2 x76 +20 x92 +7 x46 -476 x46 >= -398 ;
+8 x8 +3 x15 +10 x20 +17 x21 +19 x32 -12 x97 >= 0 ;
-8 x8 -3 x15 -10 x20 -17 x21 -19 x32 -12 x97 +476 x97 >= -12 ;
+8 x58 +3 x65 +10 x70 +17 x71 +19 x82 +12 x47 -476 x47 >= -419 ;
+20 x3 +5 x4 +7 x16 +11 x31 +4 x34 -13 x98 >= 0 ;
-20 x3 -5 x4 -7 x16 -11 x31 -4 x34 -13 x98 +476 x98 >= -13 ;
+20 x53 +5 x54 +7 x66 +11 x81 +4 x84 +13 x48 -476 x48 >= -429 ;
+9 x7 +2 x18 +11 x24 +9 x25 +14 x29 -11 x99 >= 0 ;
-9 x7 -2 x18 -11 x24 -9 x25 -14 x29 -11 x99 +476 x99 >= -11 ;
+9 x57 +2 x68 +11 x74 +9 x75 +14 x79 +11 x49 -476 x49 >= -431 ;
+17 x21 +1 x33 +4 x34 +4 x41 +7 x46 -9 x100 >= 0 ;
-17 x21 -1 x33 -4 x34 -4 x41 -7 x46 -9 x100 +476 x100 >= -9 ;
+17 x71 +1 x83 +4 x84 +4 x91 +7 x96 +9 x50 -476 x50 >= -443 ;
* Strong Conflict Free
-1 x1 -1 x3 >= -1 ;
-1 x1 -1 x7 >= -1 ;
-1 x1 -1 x8 >= -1 ;
-1 x1 -1 x23 >= -1 ;
-1 x1 -1 x26 >= -1 ;
-1 x1 -1 x46 >= -1 ;
-1 x2 -1 x10 >= -1 ;
-1 x2 -1 x19 >= -1 ;
-1 x2 -1 x26 >= -1 ;
-1 x2 -1 x33 >= -1 ;
-1 x2 -1 x34 >= -1 ;
-1 x3 -1 x15 >= -1 ;
-1 x3 -1 x24 >= -1 ;
-1 x3 -1 x26 >= -1 ;
-1 x3 -1 x27 >= -1 ;
-1 x3 -1 x32 >= -1 ;
-1 x3 -1 x46 >= -1 ;
-1 x3 -1 x48 >= -1 ;
-1 x4 -1 x3 >= -1 ;
-1 x4 -1 x14 >= -1 ;
-1 x4 -1 x21 >= -1 ;
-1 x4 -1 x30 >= -1 ;
-1 x4 -1 x31 >= -1 ;
-1 x4 -1 x42 >= -1 ;
-1 x4 -1 x44 >= -1 ;
-1 x4 -1 x48 >= -1 ;
-1 x5 -1 x8 >= -1 ;
-1 x5 -1 x17 >= -1 ;
-1 x5 -1 x31 >= -1 ;
-1 x5 -1 x45 >= -1 ;
-1 x6 -1 x2 >= -1 ;
-1 x6 -1 x13 >= -1 ;
-1 x6 -1 x23 >= -1 ;
-1 x6 -1 x29 >= -1 ;
-1 x6 -1 x35 >= -1 ;
-1 x6 -1 x45 >= -1 ;
-1 x6 -1 x46 >= -1 ;
-1 x7 -1 x16 >= -1 ;
-1 x7 -1 x49 >= -1 ;
-1 x8 -1 x16 >= -1 ;
-1 x8 -1 x17 >= -1 ;
-1 x8 -1 x29 >= -1 ;
-1 x8 -1 x47 >= -1 ;
-1 x9 -1 x2 >= -1 ;
-1 x9 -1 x10 >= -1 ;
-1 x9 -1 x42 >= -1 ;
-1 x9 -1 x45 >= -1 ;
-1 x10 -1 x7 >= -1 ;
-1 x10 -1 x15 >= -1 ;
-1 x10 -1 x18 >= -1 ;
-1 x10 -1 x23 >= -1 ;
-1 x10 -1 x28 >= -1 ;
-1 x10 -1 x40 >= -1 ;
-1 x11 -1 x3 >= -1 ;
-1 x11 -1 x5 >= -1 ;
-1 x11 -1 x14 >= -1 ;
-1 x12 -1 x32 >= -1 ;
-1 x12 -1 x35 >= -1 ;
-1 x12 -1 x46 >= -1 ;
-1 x13 -1 x4 >= -1 ;
-1 x13 -1 x14 >= -1 ;
-1 x13 -1 x33 >= -1 ;
-1 x13 -1 x39 >= -1 ;
-1 x13 -1 x42 >= -1 ;
-1 x14 -1 x5 >= -1 ;
-1 x14 -1 x20 >= -1 ;
-1 x14 -1 x26 >= -1 ;
-1 x14 -1 x27 >= -1 ;
-1 x14 -1 x33 >= -1 ;
-1 x14 -1 x38 >= -1 ;
-1 x14 -1 x41 >= -1 ;
-1 x15 -1 x4 >= -1 ;
-1 x15 -1 x7 >= -1 ;
-1 x15 -1 x25 >= -1 ;
-1 x15 -1 x31 >= -1 ;
-1 x15 -1 x47 >= -1 ;
-1 x16 -1 x1 >= -1 ;
-1 x16 -1 x6 >= -1 ;
-1 x16 -1 x10 >= -1 ;
-1 x16 -1 x27 >= -1 ;
-1 x16 -1 x40 >= -1 ;
-1 x16 -1 x48 >= -1 ;
-1 x17 -1 x10 >= -1 ;
-1 x17 -1 x11 >= -1 ;
-1 x17 -1 x37 >= -1 ;
-1 x17 -1 x44 >= -1 ;
-1 x18 -1 x3 >= -1 ;
-1 x18 -1 x4 >= -1 ;
-1 x18 -1 x6 >= -1 ;
-1 x18 -1 x15 >= -1 ;
-1 x18 -1 x16 >= -1 ;
-1 x18 -1 x22 >= -1 ;
-1 x18 -1 x49 >= -1 ;
-1 x19 -1 x2 >= -1 ;
-1 x19 -1 x27 >= -1 ;
-1 x19 -1 x33 >= -1 ;
-1 x19 -1 x43 >= -1 ;
-1 x20 -1 x17 >= -1 ;
-1 x20 -1 x18 >= -1 ;
-1 x20 -1 x19 >= -1 ;
-1 x20 -1 x39 >= -1 ;
-1 x20 -1 x40 >= -1 ;
-1 x20 -1 x41 >= -1 ;
-1 x20 -1 x47 >= -1 ;
-1 x21 -1 x3 >= -1 ;
-1 x21 -1 x15 >= -1 ;
-1 x21 -1 x16 >= -1 ;
-1 x21 -1 x19 >= -1 ;
-1 x21 -1 x20 >= -1 ;
-1 x21 -1 x25 >= -1 ;
-1 x21 -1 x47 >= -1 ;
-1 x21 -1 x50 >= -1 ;
-1 x22 -1 x14 >= -1 ;
-1 x22 -1 x28 >= -1 ;
-1 x22 -1 x33 >= -1 ;
-1 x22 -1 x35 >= -1 ;
-1 x22 -1 x37 >= -1 ;
-1 x22 -1 x44 >= -1 ;
-1 x24 -1 x5 >= -1 ;
-1 x24 -1 x7 >= -1 ;
-1 x24 -1 x25 >= -1 ;
-1 x24 -1 x32 >= -1 ;
-1 x24 -1 x33 >= -1 ;
-1 x24 -1 x36 >= -1 ;
-1 x24 -1 x40 >= -1 ;
-1 x24 -1 x49 >= -1 ;
-1 x25 -1 x1 >= -1 ;
-1 x25 -1 x4 >= -1 ;
-1 x25 -1 x9 >= -1 ;
-1 x25 -1 x17 >= -1 ;
-1 x25 -1 x46 >= -1 ;
-1 x25 -1 x49 >= -1 ;
-1 x26 -1 x6 >= -1 ;
-1 x26 -1 x23 >= -1 ;
-1 x26 -1 x45 >= -1 ;
-1 x26 -1 x46 >= -1 ;
-1 x27 -1 x12 >= -1 ;
-1 x27 -1 x15 >= -1 ;
-1 x27 -1 x20 >= -1 ;
-1 x27 -1 x40 >= -1 ;
-1 x28 -1 x4 >= -1 ;
-1 x28 -1 x13 >= -1 ;
-1 x28 -1 x18 >= -1 ;
-1 x28 -1 x20 >= -1 ;
-1 x28 -1 x23 >= -1 ;
-1 x28 -1 x24 >= -1 ;
-1 x28 -1 x32 >= -1 ;
-1 x28 -1 x34 >= -1 ;
-1 x28 -1 x35 >= -1 ;
-1 x29 -1 x15 >= -1 ;
-1 x29 -1 x21 >= -1 ;
-1 x29 -1 x28 >= -1 ;
-1 x29 -1 x49 >= -1 ;
-1 x30 -1 x23 >= -1 ;
-1 x30 -1 x36 >= -1 ;
-1 x30 -1 x42 >= -1 ;
-1 x31 -1 x48 >= -1 ;
-1 x32 -1 x27 >= -1 ;
-1 x32 -1 x42 >= -1 ;
-1 x32 -1 x47 >= -1 ;
-1 x33 -1 x16 >= -1 ;
-1 x33 -1 x31 >= -1 ;
-1 x33 -1 x44 >= -1 ;
-1 x33 -1 x50 >= -1 ;
-1 x34 -1 x3 >= -1 ;
-1 x34 -1 x11 >= -1 ;
-1 x34 -1 x23 >= -1 ;
-1 x34 -1 x31 >= -1 ;
-1 x34 -1 x42 >= -1 ;
-1 x34 -1 x48 >= -1 ;
-1 x34 -1 x50 >= -1 ;
-1 x35 -1 x3 >= -1 ;
-1 x35 -1 x6 >= -1 ;
-1 x35 -1 x10 >= -1 ;
-1 x35 -1 x11 >= -1 ;
-1 x35 -1 x15 >= -1 ;
-1 x36 -1 x6 >= -1 ;
-1 x36 -1 x12 >= -1 ;
-1 x36 -1 x13 >= -1 ;
-1 x36 -1 x19 >= -1 ;
-1 x36 -1 x26 >= -1 ;
-1 x36 -1 x27 >= -1 ;
-1 x36 -1 x29 >= -1 ;
-1 x37 -1 x2 >= -1 ;
-1 x37 -1 x8 >= -1 ;
-1 x37 -1 x15 >= -1 ;
-1 x37 -1 x29 >= -1 ;
-1 x37 -1 x35 >= -1 ;
-1 x38 -1 x22 >= -1 ;
-1 x39 -1 x8 >= -1 ;
-1 x39 -1 x18 >= -1 ;
-1 x39 -1 x21 >= -1 ;
-1 x40 -1 x25 >= -1 ;
-1 x40 -1 x44 >= -1 ;
-1 x41 -1 x17 >= -1 ;
-1 x41 -1 x50 >= -1 ;
-1 x42 -1 x5 >= -1 ;
-1 x42 -1 x17 >= -1 ;
-1 x42 -1 x32 >= -1 ;
-1 x42 -1 x34 >= -1 ;
-1 x42 -1 x43 >= -1 ;
-1 x42 -1 x45 >= -1 ;
-1 x42 -1 x46 >= -1 ;
-1 x43 -1 x8 >= -1 ;
-1 x43 -1 x30 >= -1 ;
-1 x43 -1 x36 >= -1 ;
-1 x43 -1 x44 >= -1 ;
-1 x44 -1 x12 >= -1 ;
-1 x44 -1 x33 >= -1 ;
-1 x44 -1 x36 >= -1 ;
-1 x45 -1 x5 >= -1 ;
-1 x45 -1 x13 >= -1 ;
-1 x45 -1 x15 >= -1 ;
-1 x45 -1 x19 >= -1 ;
-1 x45 -1 x43 >= -1 ;
-1 x46 -1 x7 >= -1 ;
-1 x46 -1 x14 >= -1 ;
-1 x46 -1 x21 >= -1 ;
-1 x46 -1 x22 >= -1 ;
-1 x46 -1 x26 >= -1 ;
-1 x46 -1 x50 >= -1 ;
-1 x47 -1 x1 >= -1 ;
-1 x47 -1 x10 >= -1 ;
-1 x47 -1 x13 >= -1 ;
-1 x47 -1 x42 >= -1 ;
-1 x48 -1 x2 >= -1 ;
-1 x48 -1 x5 >= -1 ;
-1 x48 -1 x13 >= -1 ;
-1 x48 -1 x25 >= -1 ;
-1 x48 -1 x27 >= -1 ;
-1 x48 -1 x40 >= -1 ;
-1 x49 -1 x1 >= -1 ;
-1 x49 -1 x4 >= -1 ;
-1 x49 -1 x9 >= -1 ;
-1 x49 -1 x26 >= -1 ;
-1 x49 -1 x31 >= -1 ;
-1 x50 -1 x19 >= -1 ;
-1 x50 -1 x24 >= -1 ;
-1 x50 -1 x28 >= -1 ;
-1 x50 -1 x34 >= -1 ;
-1 x50 -1 x36 >= -1 ;
-1 x50 -1 x39 >= -1 ;
* Completeness Constraints
-7 x66 -9 x75 -12 x97 -11 x99 +4 x1 >= -35 ;
-12 x56 -1 x59 -15 x69 -8 x87 -13 x98 +2 x2 >= -47 ;
-4 x51 -5 x54 -4 x61 -2 x68 -17 x71 -4 x84 -11 x85 +20 x3 >= -27 ;
-17 x63 -3 x65 -2 x68 -9 x75 -9 x78 -11 x99 +5 x4 >= -46 ;
-4 x61 -9 x64 -11 x74 -20 x92 -10 x95 -13 x98 +9 x5 >= -58 ;
-7 x66 -2 x68 -2 x76 -11 x85 -2 x86 +12 x6 >= -12 ;
-4 x51 -1 x60 -3 x65 -11 x74 -7 x96 +9 x7 >= -17 ;
-4 x51 -9 x55 -8 x87 -10 x89 -8 x93 +8 x8 >= -31 ;
-9 x75 -11 x99 +1 x9 >= -19 ;
-2 x52 -1 x59 -7 x66 -18 x67 -11 x85 -12 x97 +1 x10 >= -50 ;
-18 x67 -4 x84 -11 x85 +4 x11 >= -29 ;
-12 x77 -2 x86 -12 x94 +11 x12 >= -15 ;
-12 x56 -9 x78 -2 x86 -10 x95 -12 x97 -13 x98 +17 x13 >= -41 ;
-5 x54 -4 x61 -17 x63 -10 x72 -7 x96 +9 x14 >= -34 ;
-20 x53 -1 x60 -2 x68 -17 x71 -12 x77 -14 x79 -11 x85 -8 x87 -10 x95 +3 x15 >= -92 ;
-9 x57 -8 x58 -2 x68 -17 x71 -1 x83 +7 x16 >= -30 ;
-9 x55 -8 x58 -10 x70 -9 x75 -4 x91 -20 x92 +18 x17 >= -42 ;
-1 x60 -10 x70 -9 x78 -10 x89 +2 x18 >= -28 ;
-2 x52 -10 x70 -17 x71 -2 x86 -10 x95 -9 x100 +15 x19 >= -35 ;
-9 x64 -17 x71 -12 x77 -9 x78 +10 x20 >= -37 ;
-5 x54 -14 x79 -10 x89 -7 x96 +17 x21 >= -19 ;
-2 x68 -11 x88 -7 x96 +10 x22 >= -10 ;
-4 x51 -12 x56 -1 x60 -2 x76 -9 x78 -17 x80 -4 x84 +20 x23 >= -29 ;
-20 x53 -9 x78 -9 x100 +11 x24 >= -27 ;
-3 x65 -17 x71 -11 x74 -4 x90 -13 x98 +9 x25 >= -39 ;
-4 x51 -2 x52 -20 x53 -9 x64 -2 x86 -7 x96 -11 x99 +2 x26 >= -53 ;
-20 x53 -9 x64 -7 x66 -15 x69 -19 x82 -2 x86 -13 x98 +12 x27 >= -73 ;
-1 x60 -10 x72 -14 x79 -9 x100 +9 x28 >= -25 ;
-12 x56 -8 x58 -2 x86 -8 x87 +14 x29 >= -16 ;
-5 x54 -8 x93 +17 x30 >= 4 ;
-5 x54 -9 x55 -3 x65 -1 x83 -4 x84 -11 x99 +11 x31 >= -22 ;
-20 x53 -11 x62 -11 x74 -9 x78 -20 x92 +19 x32 >= -52 ;
-2 x52 -17 x63 -9 x64 -15 x69 -10 x72 -11 x74 -12 x94 +1 x33 >= -75 ;
-2 x52 -9 x78 -20 x92 -9 x100 +4 x34 >= -36 ;
-12 x56 -11 x62 -10 x72 -9 x78 -8 x87 +11 x35 >= -39 ;
-11 x74 -17 x80 -8 x93 -12 x94 -9 x100 +2 x36 >= -55 ;
-18 x67 -10 x72 +8 x37 >= -20 ;
-9 x64 +11 x38 >= 2 ;
-17 x63 -10 x70 -9 x100 +10 x39 >= -26 ;
-1 x60 -7 x66 -10 x70 -11 x74 -12 x77 -13 x98 +4 x40 >= -50 ;
-9 x64 -10 x70 +4 x41 >= -15 ;
-5 x54 -1 x59 -17 x63 -17 x80 -19 x82 -4 x84 -12 x97 +20 x42 >= -55 ;
-15 x69 -20 x92 -10 x95 +8 x43 >= -37 ;
-5 x54 -18 x67 -10 x72 -1 x83 -4 x90 -8 x93 +12 x44 >= -34 ;
-9 x55 -12 x56 -1 x59 -2 x76 -20 x92 +10 x45 >= -34 ;
-4 x51 -20 x53 -12 x56 -11 x62 -9 x75 -2 x76 -20 x92 +7 x46 >= -71 ;
-8 x58 -3 x65 -10 x70 -17 x71 -19 x82 +12 x47 >= -45 ;
-20 x53 -5 x54 -7 x66 -11 x81 -4 x84 +13 x48 >= -34 ;
-9 x57 -2 x68 -11 x74 -9 x75 -14 x79 +11 x49 >= -34 ;
-17 x71 -1 x83 -4 x84 -4 x91 -7 x96 +9 x50 >= -24 ;
1 x1 1 x2 1 x3 1 x4 1 x5 1 x6 1 x7 1 x8 1 x9 1 x10 1 x11 1 x12 1 x13 1 x14 1 x15 1 x16 1 x17 1 x18 1 x19 1 x20 1 x21 1 x22 1 x23 1 x24 1 x25 1 x26 1 x27 1 x28 1 x29 1 ~x30 1 x31 1 x32 1 x33 1 x34 1 x35 1 x36 1 x37 1 ~x38 1 x39 1 x40 1 x41 1 x42 1 x43 1 x44 1 x45 1 x46 1 x47 1 x48 1 x49 1 x50 >= 1 ;
1 x1 1 x2 1 x3 1 x4 1 x5 1 ~x6 1 x7 1 x8 1 x9 1 x10 1 x11 1 x12 1 x13 1 x14 1 x15 1 x16 1 x17 1 x18 1 x19 1 x20 1 x21 1 x22 1 x23 1 x24 1 x25 1 x26 1 x27 1 x28 1 x29 1 ~x30 1 x31 1 x32 1 x33 1 x34 1 x35 1 x36 1 x37 1 ~x38 1 x39 1 x40 1 x41 1 x42 1 x43 1 x44 1 x45 1 x46 1 x47 1 x48 1 x49 1 x50 >= 1 ;
